(set-logic QF_S)
(declare-fun var0 () String)
(declare-fun var1 () String)
(declare-fun var2 () String)
(declare-fun var3 () String)
(declare-fun var4 () Int)
(declare-fun var5 () Int)
(declare-fun var6 () Int)
(assert (str.contains var0 var0))
(assert (str.contains (str.substr (str.replace var1 var2 var3) (str.to.int var0) (str.to.int var2)) (str.at var2 var4)))
(assert (not (>= var5 var6)))
(assert (str.contains var2 var0))
(check-sat)